; benchmark generated from python API
(set-info :status unknown)
(declare-fun W_S1_V1 () Bool)
(declare-fun W_S1_V2 () Bool)
(declare-fun W_S1_V4 () Bool)
(declare-fun R_S1_V1 () Bool)
(declare-fun R_E1_V1 () Bool)
(declare-fun R_E1_V3 () Bool)
(declare-fun R_E1_V2 () Bool)
(declare-fun R_E1_V4 () Bool)
(declare-fun DISJ_W_S1_R_E1 () Bool)
(declare-fun R_S1_V3 () Bool)
(declare-fun R_S1_V2 () Bool)
(declare-fun R_S1_V4 () Bool)
(declare-fun DISJ_W_S1_R_S1 () Bool)
(declare-fun W_S1_V3 () Bool)
(assert
 (let (($x648 (forall ((V4_0 Int) )(forall ((V2_0 Int) )(forall ((V3_0 Int) )(forall ((V1_0 Int) )(forall ((MW_S1_V4 Bool) )(forall ((MW_S1_V2 Bool) )(forall ((MW_S1_V3 Bool) )(forall ((MW_S1_V1 Bool) )(forall ((S1_V3_!14 Int) )(forall ((S1_V3_!20 Int) )(forall ((E1_!11 Int) )(forall ((E1_!16 Int) )(forall ((E1_!17 Int) )(forall ((S1_V1_!15 Int) )(forall ((S1_V1_!21 Int) )(forall ((S1_V2_!13 Int) )(forall ((S1_V2_!19 Int) )(forall ((S1_V4_!12 Int) )(forall ((S1_V4_!18 Int) )(let (($x3407 (and (= (ite MW_S1_V4 S1_V4_!12 V4_0) (ite MW_S1_V4 S1_V4_!18 V4_0)) (= E1_!16 (ite MW_S1_V1 S1_V1_!21 E1_!17)) (= (ite MW_S1_V3 S1_V3_!14 V3_0) (ite MW_S1_V3 S1_V3_!20 V3_0)) (= (ite MW_S1_V1 S1_V1_!15 E1_!11) (ite MW_S1_V1 S1_V1_!21 E1_!17)))))
 (let (($x2040 (and (or (not R_E1_V4) (= (ite MW_S1_V4 S1_V4_!12 V4_0) V4_0)) (or (not R_E1_V2) (= (ite MW_S1_V2 S1_V2_!13 V2_0) V2_0)) (or (not R_E1_V3) (= (ite MW_S1_V3 S1_V3_!14 V3_0) V3_0)) (or (not R_E1_V1) (= (ite MW_S1_V1 S1_V1_!15 E1_!11) V1_0)))))
 (let (($x254 (and (or (not R_E1_V4) (= V4_0 (ite MW_S1_V4 S1_V4_!12 V4_0))) (or (not R_E1_V2) (= V2_0 (ite MW_S1_V2 S1_V2_!13 V2_0))) (or (not R_E1_V3) (= V3_0 (ite MW_S1_V3 S1_V3_!14 V3_0))) (or (not R_E1_V1) (= V1_0 (ite MW_S1_V1 S1_V1_!15 E1_!11))))))
 (let (($x1515 (and (or (not (or (not R_S1_V1) (= E1_!17 E1_!11))) (= S1_V3_!20 S1_V3_!14)) (or (not $x254) (= E1_!11 E1_!16)) (= E1_!11 E1_!17) (or (not $x2040) (= E1_!16 E1_!17)) (or (not (or (not R_S1_V1) (= E1_!17 E1_!11))) (= S1_V1_!21 S1_V1_!15)) (or (not (or (not R_S1_V1) (= E1_!17 E1_!11))) (= S1_V2_!19 S1_V2_!13)) (or (not (or (not R_S1_V1) (= E1_!17 E1_!11))) (= S1_V4_!18 S1_V4_!12)) (or (not MW_S1_V4) W_S1_V4) (or (not MW_S1_V2) W_S1_V2) (or (not MW_S1_V1) W_S1_V1))))
 (or (not $x1515) $x3407))))))
 )
 )
 )
 )
 )
 )
 )
 )
 )
 )
 )
 )
 )
 )
 )
 )
 )
 )
 ))
 (let (($x2145 (and W_S1_V1 R_E1_V1)))
 (let (($x1166 (and W_S1_V2 R_E1_V2)))
 (let (($x1105 (and W_S1_V4 R_E1_V4)))
 (let (($x3609 (= DISJ_W_S1_R_E1 (not (or $x1105 $x1166 R_E1_V3 $x2145)))))
 (let (($x1809 (and W_S1_V1 R_S1_V1)))
 (let (($x2312 (and W_S1_V2 R_S1_V2)))
 (let (($x1961 (and W_S1_V4 R_S1_V4)))
 (let (($x5507 (= DISJ_W_S1_R_S1 (not (or $x1961 $x2312 R_S1_V3 $x1809)))))
 (and W_S1_V3 $x5507 $x3609 $x648)))))))))))
(check-sat)
